(set-info :Origin "This instance was generated by: BanditFuzz-- an RL fuzzer for SMT solvers" )
(set-info :Author "Joe Scott, Fed Mora, Vijay Ganesh" )
(set-info :Contact "Joe Scott, joseph.scott@uwaterloo.ca")
(set-logic QF_BV)
(declare-const bool_0 Bool)
(declare-const bool_1 Bool)
(declare-const bool_2 Bool)
(declare-const bool_3 Bool)
(declare-const bool_4 Bool)
(declare-const bv_0 (_ BitVec 32))
(declare-const bv_1 (_ BitVec 32))
(declare-const bv_2 (_ BitVec 32))
(declare-const bv_3 (_ BitVec 32))
(declare-const bv_4 (_ BitVec 32))
(assert (and (bvult (bvurem bv_4 #xc4aae882 ) (bvshl bv_2 bv_1)) (and (=> false bool_2) (and bool_0 bool_4))))
(assert (and (not (xor true false)) (or (bvult bv_2 bv_4) (bvsle bv_4 #x8dc84b7e ))))
(assert (and (bvule (bvsmod bv_3 #xd91c1767 ) (bvshl #x15caf34f  bv_3)) (bvsge (bvnand #xe17babcc  #xad1cd39a ) (bvxnor bv_2 #x65a452f0 ))))
(assert (or (or (=> true false) (bvsge #x96798d14  bv_4)) (xor (bvult #x673fc9ae  #xa6655016 ) (bvult #x038f3fcb  bv_3))))
(assert (bvsgt (bvlshr (bvand bv_4 #xec432752 ) (bvshl bv_0 bv_2)) (bvurem (bvsmod bv_3 #x65cdec51 ) (bvsmod #x853bf052  bv_1))))
(check-sat)
(exit)
